InboundTrucks  = 12;
OutboundTrucks = 8;
ReleaseTime    = [9,22,10,35,11,24,18,27,36,2,33,34];
UnloadTime     = [10,9,3,7,8,4,9,3,2,1,3,10];
LoadTime       = [10,8,9,4,9,9,3,8];
TransferTime   = [| 5,4,4,1,2,5,1,3 | 4,2,5,4,5,4,4,2 | 2,3,2,1,5,2,3,4 | 2,5,5,4,3,3,4,5 | 4,5,2,4,2,2,5,5 | 5,5,2,5,3,5,1,4 | 1,4,2,3,1,5,4,3 | 4,2,2,3,4,2,2,2 | 5,4,2,2,5,4,5,2 | 1,1,2,4,3,2,1,1 | 2,1,4,3,3,3,4,4 | 2,4,2,3,2,1,4,2 |];
